data;
set K:= K1 K2 K3 K4 K5 K6 K7 K8 K9 K10 ;

set F:= F1 F2 F3 ;

set Q:= Q1 Q2 ;

param T:= 45;
param V: 
	K1  K2  K3  K4  K5  K6  K7  K8  K9  K10 :=
Q1	1   1   1   1   1   1   0   0   0   0   
Q2	0   0   0   0   0   0   1   1   1   1   
; # if resorce k is of type q

param TF:= 
K1 6
K2 6
K3 6
K4 6
K5 6
K6 6
K7 12
K8 12
K9 12
K10 12
; # number of continuous time slots resource can fly

param TR:= 
K1 2
K2 2
K3 2
K4 2
K5 2
K6 2
K7 4
K8 4
K9 4
K10 4
; #  number of continuous time slots resource k needs to rest between flights

param P:= 
K1 36
K2 36
K3 36
K4 36
K5 36
K6 36
K7 36
K8 36
K9 36
K10 36
; #  number of continuous time slots a pilot can be present including rest times for resource k 

param N:= 
K1 4
K2 4
K3 4
K4 4
K5 4
K6 4
K7 2
K8 2
K9 2
K10 2
; # max number of flights resource k can fly in the total time period

param A: 
	K1  K2  K3  K4  K5  K6  K7  K8  K9  K10 :=
1	1   1   1   1   1   1   1   1   1   1   
2	1   1   1   1   1   1   1   1   1   1   
3	1   1   1   1   1   1   1   1   1   1   
4	1   1   1   1   1   1   1   1   1   1   
5	1   1   1   1   1   1   1   1   1   1   
6	1   1   1   1   1   1   1   1   1   1   
7	1   1   1   1   1   1   1   1   1   1   
8	1   1   1   1   1   1   1   1   1   1   
9	1   1   1   1   1   1   1   1   1   1   
10	1   1   1   1   1   1   1   1   1   1   
11	1   1   1   1   1   1   1   1   1   1   
12	1   1   1   1   1   1   1   1   1   1   
13	1   1   1   1   1   1   1   1   1   1   
14	1   1   1   1   1   1   1   1   1   1   
15	1   1   1   1   1   1   1   1   1   1   
16	1   1   1   1   1   1   1   1   1   1   
17	1   1   1   1   1   1   1   1   1   1   
18	1   1   1   1   1   1   1   1   1   1   
19	1   1   1   1   1   1   1   1   1   1   
20	1   1   1   1   1   1   1   1   1   1   
21	1   1   1   1   1   1   1   1   1   1   
22	1   1   1   1   1   1   1   1   1   1   
23	1   1   1   1   1   1   1   1   1   1   
24	1   1   1   1   1   1   1   1   1   1   
25	1   1   1   1   1   1   1   1   1   1   
26	1   1   1   1   1   1   1   1   1   1   
27	1   1   1   1   1   1   1   1   1   1   
28	1   1   1   1   1   1   1   1   1   1   
29	1   1   1   1   1   1   1   1   1   1   
30	1   1   1   1   1   1   1   1   1   1   
31	1   1   1   1   1   1   1   1   1   1   
32	1   1   1   1   1   1   1   1   1   1   
33	1   1   1   1   1   1   1   1   1   1   
34	1   1   1   1   1   1   1   1   1   1   
35	1   1   1   1   1   1   1   1   1   1   
36	1   1   1   1   1   1   1   1   1   1   
37	1   1   1   1   1   1   1   1   1   1   
38	1   1   1   1   1   1   1   1   1   1   
39	1   1   1   1   1   1   1   1   1   1   
40	1   1   1   1   1   1   1   1   1   1   
41	1   1   1   1   1   1   1   1   1   1   
42	1   1   1   1   1   1   1   1   1   1   
43	1   1   1   1   1   1   1   1   1   1   
44	1   1   1   1   1   1   1   1   1   1   
45	1   1   1   1   1   1   1   1   1   1   
; # availability of resorce k in time slot t

param B: 
	F1  F2  F3  :=
Q1	0   0   0   
Q2	0   0   0   
; # if front f requires resources of type q

param U: 
	F1  F2  F3  :=
K1	0   0   0   
K2	0   0   0   
K3	0   0   0   
K4	0   0   0   
K5	0   0   0   
K6	0   0   0   
K7	1   1   1   
K8	1   1   1   
K9	1   1   1   
K10	2   2   2   
; # transit time of resource

param C:= 
K1 900
K2 900
K3 900
K4 1500
K5 4500
K6 2100
K7 5500
K8 5500
K9 5500
K10 5500
; #  water capacity of resource k

param S:= 
F1 9
F2 8
F3 10
; # max number of resources that can fly at front f in the same time slot

param D:= 

[*,*,F1 ]:  K1    K2    K3    K4    K5    K6    K7    K8    K9    K10   :=
1           1.77  1.77  1.77  1.77  1.41  1.77  1.06  1.06  1.06  1.06  
2           1.77  1.77  1.77  1.77  1.41  1.77  1.06  1.06  1.06  1.06  
3           1.77  1.77  1.77  1.77  1.41  1.77  1.06  1.06  1.06  1.06  
4           1.77  1.77  1.77  1.77  1.41  1.77  1.06  1.06  1.06  1.06  
5           1.77  1.77  1.77  1.77  1.41  1.77  1.06  1.06  1.06  1.06  
6           1.77  1.77  1.77  1.77  1.41  1.77  1.06  1.06  1.06  1.06  
7           1.77  1.77  1.77  1.77  1.41  1.77  1.06  1.06  1.06  1.06  
8           1.77  1.77  1.77  1.77  1.41  1.77  1.06  1.06  1.06  1.06  
9           1.77  1.77  1.77  1.77  1.41  1.77  1.06  1.06  1.06  1.06  
10          1.77  1.77  1.77  1.77  1.41  1.77  1.06  1.06  1.06  1.06  
11          1.77  1.77  1.77  1.77  1.41  1.77  1.06  1.06  1.06  1.06  
12          1.77  1.77  1.77  1.77  1.41  1.77  1.06  1.06  1.06  1.06  
13          1.77  1.77  1.77  1.77  1.41  1.77  1.06  1.06  1.06  1.06  
14          1.77  1.77  1.77  1.77  1.41  1.77  1.06  1.06  1.06  1.06  
15          1.77  1.77  1.77  1.77  1.41  1.77  1.06  1.06  1.06  1.06  
16          1.77  1.77  1.77  1.77  1.41  1.77  1.06  1.06  1.06  1.06  
17          1.77  1.77  1.77  1.77  1.41  1.77  1.06  1.06  1.06  1.06  
18          1.77  1.77  1.77  1.77  1.41  1.77  1.06  1.06  1.06  1.06  
19          1.77  1.77  1.77  1.77  1.41  1.77  1.06  1.06  1.06  1.06  
20          1.77  1.77  1.77  1.77  1.41  1.77  1.06  1.06  1.06  1.06  
21          1.77  1.77  1.77  1.77  1.41  1.77  1.06  1.06  1.06  1.06  
22          1.77  1.77  1.77  1.77  1.41  1.77  1.06  1.06  1.06  1.06  
23          1.77  1.77  1.77  1.77  1.41  1.77  1.06  1.06  1.06  1.06  
24          1.77  1.77  1.77  1.77  1.41  1.77  1.06  1.06  1.06  1.06  
25          1.68  1.68  1.68  1.68  1.34  1.68  1.01  1.01  1.01  1.01  
26          1.68  1.68  1.68  1.68  1.34  1.68  1.01  1.01  1.01  1.01  
27          1.68  1.68  1.68  1.68  1.34  1.68  1.01  1.01  1.01  1.01  
28          1.68  1.68  1.68  1.68  1.34  1.68  1.01  1.01  1.01  1.01  
29          1.68  1.68  1.68  1.68  1.34  1.68  1.01  1.01  1.01  1.01  
30          1.68  1.68  1.68  1.68  1.34  1.68  1.01  1.01  1.01  1.01  
31          1.68  1.68  1.68  1.68  1.34  1.68  1.01  1.01  1.01  1.01  
32          1.68  1.68  1.68  1.68  1.34  1.68  1.01  1.01  1.01  1.01  
33          1.68  1.68  1.68  1.68  1.34  1.68  1.01  1.01  1.01  1.01  
34          1.77  1.77  1.77  1.77  1.41  1.77  1.06  1.06  1.06  1.06  
35          1.77  1.77  1.77  1.77  1.41  1.77  1.06  1.06  1.06  1.06  
36          1.77  1.77  1.77  1.77  1.41  1.77  1.06  1.06  1.06  1.06  
37          1.77  1.77  1.77  1.77  1.41  1.77  1.06  1.06  1.06  1.06  
38          1.77  1.77  1.77  1.77  1.41  1.77  1.06  1.06  1.06  1.06  
39          1.77  1.77  1.77  1.77  1.41  1.77  1.06  1.06  1.06  1.06  
40          1.77  1.77  1.77  1.77  1.41  1.77  1.06  1.06  1.06  1.06  
41          1.77  1.77  1.77  1.77  1.41  1.77  1.06  1.06  1.06  1.06  
42          1.77  1.77  1.77  1.77  1.41  1.77  1.06  1.06  1.06  1.06  
43          1.77  1.77  1.77  1.77  1.41  1.77  1.06  1.06  1.06  1.06  
44          1.77  1.77  1.77  1.77  1.41  1.77  1.06  1.06  1.06  1.06  
45          1.77  1.77  1.77  1.77  1.41  1.77  1.06  1.06  1.06  1.06  

[*,*,F2 ]:  K1    K2    K3    K4    K5    K6    K7    K8    K9    K10   :=
1           1.65  1.65  1.65  1.65  1.32  1.65  0.99  0.99  0.99  0.99  
2           1.65  1.65  1.65  1.65  1.32  1.65  0.99  0.99  0.99  0.99  
3           1.65  1.65  1.65  1.65  1.32  1.65  0.99  0.99  0.99  0.99  
4           1.65  1.65  1.65  1.65  1.32  1.65  0.99  0.99  0.99  0.99  
5           1.65  1.65  1.65  1.65  1.32  1.65  0.99  0.99  0.99  0.99  
6           1.65  1.65  1.65  1.65  1.32  1.65  0.99  0.99  0.99  0.99  
7           1.65  1.65  1.65  1.65  1.32  1.65  0.99  0.99  0.99  0.99  
8           1.65  1.65  1.65  1.65  1.32  1.65  0.99  0.99  0.99  0.99  
9           1.65  1.65  1.65  1.65  1.32  1.65  0.99  0.99  0.99  0.99  
10          1.65  1.65  1.65  1.65  1.32  1.65  0.99  0.99  0.99  0.99  
11          1.65  1.65  1.65  1.65  1.32  1.65  0.99  0.99  0.99  0.99  
12          1.65  1.65  1.65  1.65  1.32  1.65  0.99  0.99  0.99  0.99  
13          1.65  1.65  1.65  1.65  1.32  1.65  0.99  0.99  0.99  0.99  
14          1.65  1.65  1.65  1.65  1.32  1.65  0.99  0.99  0.99  0.99  
15          1.65  1.65  1.65  1.65  1.32  1.65  0.99  0.99  0.99  0.99  
16          1.65  1.65  1.65  1.65  1.32  1.65  0.99  0.99  0.99  0.99  
17          1.65  1.65  1.65  1.65  1.32  1.65  0.99  0.99  0.99  0.99  
18          1.65  1.65  1.65  1.65  1.32  1.65  0.99  0.99  0.99  0.99  
19          1.65  1.65  1.65  1.65  1.32  1.65  0.99  0.99  0.99  0.99  
20          1.65  1.65  1.65  1.65  1.32  1.65  0.99  0.99  0.99  0.99  
21          1.65  1.65  1.65  1.65  1.32  1.65  0.99  0.99  0.99  0.99  
22          1.65  1.65  1.65  1.65  1.32  1.65  0.99  0.99  0.99  0.99  
23          1.65  1.65  1.65  1.65  1.32  1.65  0.99  0.99  0.99  0.99  
24          1.65  1.65  1.65  1.65  1.32  1.65  0.99  0.99  0.99  0.99  
25          1.57  1.57  1.57  1.57  1.25  1.57  0.94  0.94  0.94  0.94  
26          1.57  1.57  1.57  1.57  1.25  1.57  0.94  0.94  0.94  0.94  
27          1.57  1.57  1.57  1.57  1.25  1.57  0.94  0.94  0.94  0.94  
28          1.57  1.57  1.57  1.57  1.25  1.57  0.94  0.94  0.94  0.94  
29          1.57  1.57  1.57  1.57  1.25  1.57  0.94  0.94  0.94  0.94  
30          1.57  1.57  1.57  1.57  1.25  1.57  0.94  0.94  0.94  0.94  
31          1.57  1.57  1.57  1.57  1.25  1.57  0.94  0.94  0.94  0.94  
32          1.57  1.57  1.57  1.57  1.25  1.57  0.94  0.94  0.94  0.94  
33          1.57  1.57  1.57  1.57  1.25  1.57  0.94  0.94  0.94  0.94  
34          1.65  1.65  1.65  1.65  1.32  1.65  0.99  0.99  0.99  0.99  
35          1.65  1.65  1.65  1.65  1.32  1.65  0.99  0.99  0.99  0.99  
36          1.65  1.65  1.65  1.65  1.32  1.65  0.99  0.99  0.99  0.99  
37          1.65  1.65  1.65  1.65  1.32  1.65  0.99  0.99  0.99  0.99  
38          1.65  1.65  1.65  1.65  1.32  1.65  0.99  0.99  0.99  0.99  
39          1.65  1.65  1.65  1.65  1.32  1.65  0.99  0.99  0.99  0.99  
40          1.65  1.65  1.65  1.65  1.32  1.65  0.99  0.99  0.99  0.99  
41          1.65  1.65  1.65  1.65  1.32  1.65  0.99  0.99  0.99  0.99  
42          1.65  1.65  1.65  1.65  1.32  1.65  0.99  0.99  0.99  0.99  
43          1.65  1.65  1.65  1.65  1.32  1.65  0.99  0.99  0.99  0.99  
44          1.65  1.65  1.65  1.65  1.32  1.65  0.99  0.99  0.99  0.99  
45          1.65  1.65  1.65  1.65  1.32  1.65  0.99  0.99  0.99  0.99  

[*,*,F3 ]:  K1    K2    K3    K4    K5    K6    K7    K8    K9    K10   :=
1           1.87  1.87  1.87  1.87  1.49  1.87  1.12  1.12  1.12  1.12  
2           1.87  1.87  1.87  1.87  1.49  1.87  1.12  1.12  1.12  1.12  
3           1.87  1.87  1.87  1.87  1.49  1.87  1.12  1.12  1.12  1.12  
4           1.87  1.87  1.87  1.87  1.49  1.87  1.12  1.12  1.12  1.12  
5           1.87  1.87  1.87  1.87  1.49  1.87  1.12  1.12  1.12  1.12  
6           1.87  1.87  1.87  1.87  1.49  1.87  1.12  1.12  1.12  1.12  
7           1.87  1.87  1.87  1.87  1.49  1.87  1.12  1.12  1.12  1.12  
8           1.87  1.87  1.87  1.87  1.49  1.87  1.12  1.12  1.12  1.12  
9           1.87  1.87  1.87  1.87  1.49  1.87  1.12  1.12  1.12  1.12  
10          1.87  1.87  1.87  1.87  1.49  1.87  1.12  1.12  1.12  1.12  
11          1.87  1.87  1.87  1.87  1.49  1.87  1.12  1.12  1.12  1.12  
12          1.87  1.87  1.87  1.87  1.49  1.87  1.12  1.12  1.12  1.12  
13          1.87  1.87  1.87  1.87  1.49  1.87  1.12  1.12  1.12  1.12  
14          1.87  1.87  1.87  1.87  1.49  1.87  1.12  1.12  1.12  1.12  
15          1.87  1.87  1.87  1.87  1.49  1.87  1.12  1.12  1.12  1.12  
16          1.87  1.87  1.87  1.87  1.49  1.87  1.12  1.12  1.12  1.12  
17          1.87  1.87  1.87  1.87  1.49  1.87  1.12  1.12  1.12  1.12  
18          1.87  1.87  1.87  1.87  1.49  1.87  1.12  1.12  1.12  1.12  
19          1.87  1.87  1.87  1.87  1.49  1.87  1.12  1.12  1.12  1.12  
20          1.87  1.87  1.87  1.87  1.49  1.87  1.12  1.12  1.12  1.12  
21          1.87  1.87  1.87  1.87  1.49  1.87  1.12  1.12  1.12  1.12  
22          1.87  1.87  1.87  1.87  1.49  1.87  1.12  1.12  1.12  1.12  
23          1.87  1.87  1.87  1.87  1.49  1.87  1.12  1.12  1.12  1.12  
24          1.87  1.87  1.87  1.87  1.49  1.87  1.12  1.12  1.12  1.12  
25          1.78  1.78  1.78  1.78  1.42  1.78  1.06  1.06  1.06  1.06  
26          1.78  1.78  1.78  1.78  1.42  1.78  1.06  1.06  1.06  1.06  
27          1.78  1.78  1.78  1.78  1.42  1.78  1.06  1.06  1.06  1.06  
28          1.78  1.78  1.78  1.78  1.42  1.78  1.06  1.06  1.06  1.06  
29          1.78  1.78  1.78  1.78  1.42  1.78  1.06  1.06  1.06  1.06  
30          1.78  1.78  1.78  1.78  1.42  1.78  1.06  1.06  1.06  1.06  
31          1.78  1.78  1.78  1.78  1.42  1.78  1.06  1.06  1.06  1.06  
32          1.78  1.78  1.78  1.78  1.42  1.78  1.06  1.06  1.06  1.06  
33          1.78  1.78  1.78  1.78  1.42  1.78  1.06  1.06  1.06  1.06  
34          1.87  1.87  1.87  1.87  1.49  1.87  1.12  1.12  1.12  1.12  
35          1.87  1.87  1.87  1.87  1.49  1.87  1.12  1.12  1.12  1.12  
36          1.87  1.87  1.87  1.87  1.49  1.87  1.12  1.12  1.12  1.12  
37          1.87  1.87  1.87  1.87  1.49  1.87  1.12  1.12  1.12  1.12  
38          1.87  1.87  1.87  1.87  1.49  1.87  1.12  1.12  1.12  1.12  
39          1.87  1.87  1.87  1.87  1.49  1.87  1.12  1.12  1.12  1.12  
40          1.87  1.87  1.87  1.87  1.49  1.87  1.12  1.12  1.12  1.12  
41          1.87  1.87  1.87  1.87  1.49  1.87  1.12  1.12  1.12  1.12  
42          1.87  1.87  1.87  1.87  1.49  1.87  1.12  1.12  1.12  1.12  
43          1.87  1.87  1.87  1.87  1.49  1.87  1.12  1.12  1.12  1.12  
44          1.87  1.87  1.87  1.87  1.49  1.87  1.12  1.12  1.12  1.12  
45          1.87  1.87  1.87  1.87  1.49  1.87  1.12  1.12  1.12  1.12  
; # downloads resource k can do at front f in time t if intermediate time slot

param E:= 

[*,*,F1 ]:  K1    K2    K3    K4    K5    K6    K7    K8    K9    K10   :=
1           0.57  0.05  0.35  0.23  0.41  0.23  0.30  0.36  0.02  0.05  
2           0.57  0.05  0.35  0.23  0.41  0.23  0.30  0.36  0.02  0.05  
3           0.57  0.05  0.35  0.23  0.41  0.23  0.30  0.36  0.02  0.05  
4           0.57  0.05  0.35  0.23  0.41  0.23  0.30  0.36  0.02  0.05  
5           0.57  0.05  0.35  0.23  0.41  0.23  0.30  0.36  0.02  0.05  
6           0.57  0.05  0.35  0.23  0.41  0.23  0.30  0.36  0.02  0.05  
7           0.57  0.05  0.35  0.23  0.41  0.23  0.30  0.36  0.02  0.05  
8           0.57  0.05  0.35  0.23  0.41  0.23  0.30  0.36  0.02  0.05  
9           0.57  0.05  0.35  0.23  0.41  0.23  0.30  0.36  0.02  0.05  
10          0.57  0.05  0.35  0.23  0.41  0.23  0.30  0.36  0.02  0.05  
11          0.57  0.05  0.35  0.23  0.41  0.23  0.30  0.36  0.02  0.05  
12          0.57  0.05  0.35  0.23  0.41  0.23  0.30  0.36  0.02  0.05  
13          0.57  0.05  0.35  0.23  0.41  0.23  0.30  0.36  0.02  0.05  
14          0.57  0.05  0.35  0.23  0.41  0.23  0.30  0.36  0.02  0.05  
15          0.57  0.05  0.35  0.23  0.41  0.23  0.30  0.36  0.02  0.05  
16          0.57  0.05  0.35  0.23  0.41  0.23  0.30  0.36  0.02  0.05  
17          0.57  0.05  0.35  0.23  0.41  0.23  0.30  0.36  0.02  0.05  
18          0.57  0.05  0.35  0.23  0.41  0.23  0.30  0.36  0.02  0.05  
19          0.57  0.05  0.35  0.23  0.41  0.23  0.30  0.36  0.02  0.05  
20          0.57  0.05  0.35  0.23  0.41  0.23  0.30  0.36  0.02  0.05  
21          0.57  0.05  0.35  0.23  0.41  0.23  0.30  0.36  0.02  0.05  
22          0.57  0.05  0.35  0.23  0.41  0.23  0.30  0.36  0.02  0.05  
23          0.57  0.05  0.35  0.23  0.41  0.23  0.30  0.36  0.02  0.05  
24          0.57  0.05  0.35  0.23  0.41  0.23  0.30  0.36  0.02  0.05  
25          0.54  0.05  0.34  0.22  0.39  0.22  0.28  0.34  0.02  0.05  
26          0.54  0.05  0.34  0.22  0.39  0.22  0.28  0.34  0.02  0.05  
27          0.54  0.05  0.34  0.22  0.39  0.22  0.28  0.34  0.02  0.05  
28          0.54  0.05  0.34  0.22  0.39  0.22  0.28  0.34  0.02  0.05  
29          0.54  0.05  0.34  0.22  0.39  0.22  0.28  0.34  0.02  0.05  
30          0.54  0.05  0.34  0.22  0.39  0.22  0.28  0.34  0.02  0.05  
31          0.54  0.05  0.34  0.22  0.39  0.22  0.28  0.34  0.02  0.05  
32          0.54  0.05  0.34  0.22  0.39  0.22  0.28  0.34  0.02  0.05  
33          0.54  0.05  0.34  0.22  0.39  0.22  0.28  0.34  0.02  0.05  
34          0.57  0.05  0.35  0.23  0.41  0.23  0.30  0.36  0.02  0.05  
35          0.57  0.05  0.35  0.23  0.41  0.23  0.30  0.36  0.02  0.05  
36          0.57  0.05  0.35  0.23  0.41  0.23  0.30  0.36  0.02  0.05  
37          0.57  0.05  0.35  0.23  0.41  0.23  0.30  0.36  0.02  0.05  
38          0.57  0.05  0.35  0.23  0.41  0.23  0.30  0.36  0.02  0.05  
39          0.57  0.05  0.35  0.23  0.41  0.23  0.30  0.36  0.02  0.05  
40          0.57  0.05  0.35  0.23  0.41  0.23  0.30  0.36  0.02  0.05  
41          0.57  0.05  0.35  0.23  0.41  0.23  0.30  0.36  0.02  0.05  
42          0.57  0.05  0.35  0.23  0.41  0.23  0.30  0.36  0.02  0.05  
43          0.57  0.05  0.35  0.23  0.41  0.23  0.30  0.36  0.02  0.05  
44          0.57  0.05  0.35  0.23  0.41  0.23  0.30  0.36  0.02  0.05  
45          0.57  0.05  0.35  0.23  0.41  0.23  0.30  0.36  0.02  0.05  

[*,*,F2 ]:  K1    K2    K3    K4    K5    K6    K7    K8    K9    K10   :=
1           0.56  0.08  0.33  0.33  0.42  0.25  0.31  0.30  0.03  0.01  
2           0.56  0.08  0.33  0.33  0.42  0.25  0.31  0.30  0.03  0.01  
3           0.56  0.08  0.33  0.33  0.42  0.25  0.31  0.30  0.03  0.01  
4           0.56  0.08  0.33  0.33  0.42  0.25  0.31  0.30  0.03  0.01  
5           0.56  0.08  0.33  0.33  0.42  0.25  0.31  0.30  0.03  0.01  
6           0.56  0.08  0.33  0.33  0.42  0.25  0.31  0.30  0.03  0.01  
7           0.56  0.08  0.33  0.33  0.42  0.25  0.31  0.30  0.03  0.01  
8           0.56  0.08  0.33  0.33  0.42  0.25  0.31  0.30  0.03  0.01  
9           0.56  0.08  0.33  0.33  0.42  0.25  0.31  0.30  0.03  0.01  
10          0.56  0.08  0.33  0.33  0.42  0.25  0.31  0.30  0.03  0.01  
11          0.56  0.08  0.33  0.33  0.42  0.25  0.31  0.30  0.03  0.01  
12          0.56  0.08  0.33  0.33  0.42  0.25  0.31  0.30  0.03  0.01  
13          0.56  0.08  0.33  0.33  0.42  0.25  0.31  0.30  0.03  0.01  
14          0.56  0.08  0.33  0.33  0.42  0.25  0.31  0.30  0.03  0.01  
15          0.56  0.08  0.33  0.33  0.42  0.25  0.31  0.30  0.03  0.01  
16          0.56  0.08  0.33  0.33  0.42  0.25  0.31  0.30  0.03  0.01  
17          0.56  0.08  0.33  0.33  0.42  0.25  0.31  0.30  0.03  0.01  
18          0.56  0.08  0.33  0.33  0.42  0.25  0.31  0.30  0.03  0.01  
19          0.56  0.08  0.33  0.33  0.42  0.25  0.31  0.30  0.03  0.01  
20          0.56  0.08  0.33  0.33  0.42  0.25  0.31  0.30  0.03  0.01  
21          0.56  0.08  0.33  0.33  0.42  0.25  0.31  0.30  0.03  0.01  
22          0.56  0.08  0.33  0.33  0.42  0.25  0.31  0.30  0.03  0.01  
23          0.56  0.08  0.33  0.33  0.42  0.25  0.31  0.30  0.03  0.01  
24          0.56  0.08  0.33  0.33  0.42  0.25  0.31  0.30  0.03  0.01  
25          0.53  0.08  0.31  0.31  0.40  0.24  0.29  0.28  0.03  0.01  
26          0.53  0.08  0.31  0.31  0.40  0.24  0.29  0.28  0.03  0.01  
27          0.53  0.08  0.31  0.31  0.40  0.24  0.29  0.28  0.03  0.01  
28          0.53  0.08  0.31  0.31  0.40  0.24  0.29  0.28  0.03  0.01  
29          0.53  0.08  0.31  0.31  0.40  0.24  0.29  0.28  0.03  0.01  
30          0.53  0.08  0.31  0.31  0.40  0.24  0.29  0.28  0.03  0.01  
31          0.53  0.08  0.31  0.31  0.40  0.24  0.29  0.28  0.03  0.01  
32          0.53  0.08  0.31  0.31  0.40  0.24  0.29  0.28  0.03  0.01  
33          0.53  0.08  0.31  0.31  0.40  0.24  0.29  0.28  0.03  0.01  
34          0.56  0.08  0.33  0.33  0.42  0.25  0.31  0.30  0.03  0.01  
35          0.56  0.08  0.33  0.33  0.42  0.25  0.31  0.30  0.03  0.01  
36          0.56  0.08  0.33  0.33  0.42  0.25  0.31  0.30  0.03  0.01  
37          0.56  0.08  0.33  0.33  0.42  0.25  0.31  0.30  0.03  0.01  
38          0.56  0.08  0.33  0.33  0.42  0.25  0.31  0.30  0.03  0.01  
39          0.56  0.08  0.33  0.33  0.42  0.25  0.31  0.30  0.03  0.01  
40          0.56  0.08  0.33  0.33  0.42  0.25  0.31  0.30  0.03  0.01  
41          0.56  0.08  0.33  0.33  0.42  0.25  0.31  0.30  0.03  0.01  
42          0.56  0.08  0.33  0.33  0.42  0.25  0.31  0.30  0.03  0.01  
43          0.56  0.08  0.33  0.33  0.42  0.25  0.31  0.30  0.03  0.01  
44          0.56  0.08  0.33  0.33  0.42  0.25  0.31  0.30  0.03  0.01  
45          0.56  0.08  0.33  0.33  0.42  0.25  0.31  0.30  0.03  0.01  

[*,*,F3 ]:  K1    K2    K3    K4    K5    K6    K7    K8    K9    K10   :=
1           0.51  0.02  0.34  0.24  0.46  0.15  0.29  0.45  0.07  0.12  
2           0.51  0.02  0.34  0.24  0.46  0.15  0.29  0.45  0.07  0.12  
3           0.51  0.02  0.34  0.24  0.46  0.15  0.29  0.45  0.07  0.12  
4           0.51  0.02  0.34  0.24  0.46  0.15  0.29  0.45  0.07  0.12  
5           0.51  0.02  0.34  0.24  0.46  0.15  0.29  0.45  0.07  0.12  
6           0.51  0.02  0.34  0.24  0.46  0.15  0.29  0.45  0.07  0.12  
7           0.51  0.02  0.34  0.24  0.46  0.15  0.29  0.45  0.07  0.12  
8           0.51  0.02  0.34  0.24  0.46  0.15  0.29  0.45  0.07  0.12  
9           0.51  0.02  0.34  0.24  0.46  0.15  0.29  0.45  0.07  0.12  
10          0.51  0.02  0.34  0.24  0.46  0.15  0.29  0.45  0.07  0.12  
11          0.51  0.02  0.34  0.24  0.46  0.15  0.29  0.45  0.07  0.12  
12          0.51  0.02  0.34  0.24  0.46  0.15  0.29  0.45  0.07  0.12  
13          0.51  0.02  0.34  0.24  0.46  0.15  0.29  0.45  0.07  0.12  
14          0.51  0.02  0.34  0.24  0.46  0.15  0.29  0.45  0.07  0.12  
15          0.51  0.02  0.34  0.24  0.46  0.15  0.29  0.45  0.07  0.12  
16          0.51  0.02  0.34  0.24  0.46  0.15  0.29  0.45  0.07  0.12  
17          0.51  0.02  0.34  0.24  0.46  0.15  0.29  0.45  0.07  0.12  
18          0.51  0.02  0.34  0.24  0.46  0.15  0.29  0.45  0.07  0.12  
19          0.51  0.02  0.34  0.24  0.46  0.15  0.29  0.45  0.07  0.12  
20          0.51  0.02  0.34  0.24  0.46  0.15  0.29  0.45  0.07  0.12  
21          0.51  0.02  0.34  0.24  0.46  0.15  0.29  0.45  0.07  0.12  
22          0.51  0.02  0.34  0.24  0.46  0.15  0.29  0.45  0.07  0.12  
23          0.51  0.02  0.34  0.24  0.46  0.15  0.29  0.45  0.07  0.12  
24          0.51  0.02  0.34  0.24  0.46  0.15  0.29  0.45  0.07  0.12  
25          0.48  0.02  0.32  0.23  0.44  0.14  0.28  0.43  0.06  0.12  
26          0.48  0.02  0.32  0.23  0.44  0.14  0.28  0.43  0.06  0.12  
27          0.48  0.02  0.32  0.23  0.44  0.14  0.28  0.43  0.06  0.12  
28          0.48  0.02  0.32  0.23  0.44  0.14  0.28  0.43  0.06  0.12  
29          0.48  0.02  0.32  0.23  0.44  0.14  0.28  0.43  0.06  0.12  
30          0.48  0.02  0.32  0.23  0.44  0.14  0.28  0.43  0.06  0.12  
31          0.48  0.02  0.32  0.23  0.44  0.14  0.28  0.43  0.06  0.12  
32          0.48  0.02  0.32  0.23  0.44  0.14  0.28  0.43  0.06  0.12  
33          0.48  0.02  0.32  0.23  0.44  0.14  0.28  0.43  0.06  0.12  
34          0.51  0.02  0.34  0.24  0.46  0.15  0.29  0.45  0.07  0.12  
35          0.51  0.02  0.34  0.24  0.46  0.15  0.29  0.45  0.07  0.12  
36          0.51  0.02  0.34  0.24  0.46  0.15  0.29  0.45  0.07  0.12  
37          0.51  0.02  0.34  0.24  0.46  0.15  0.29  0.45  0.07  0.12  
38          0.51  0.02  0.34  0.24  0.46  0.15  0.29  0.45  0.07  0.12  
39          0.51  0.02  0.34  0.24  0.46  0.15  0.29  0.45  0.07  0.12  
40          0.51  0.02  0.34  0.24  0.46  0.15  0.29  0.45  0.07  0.12  
41          0.51  0.02  0.34  0.24  0.46  0.15  0.29  0.45  0.07  0.12  
42          0.51  0.02  0.34  0.24  0.46  0.15  0.29  0.45  0.07  0.12  
43          0.51  0.02  0.34  0.24  0.46  0.15  0.29  0.45  0.07  0.12  
44          0.51  0.02  0.34  0.24  0.46  0.15  0.29  0.45  0.07  0.12  
45          0.51  0.02  0.34  0.24  0.46  0.15  0.29  0.45  0.07  0.12  
; # downloads resource k can do at front f in time t if starting or ending flight

param W: 
	F1        F2        F3        :=
1	258.95    129.48    129.48    
2	984.02    492.01    492.01    
3	984.02    492.01    492.01    
4	984.02    492.01    492.01    
5	984.02    492.01    492.01    
6	984.02    492.01    492.01    
7	984.02    492.01    492.01    
8	984.02    492.01    492.01    
9	984.02    492.01    492.01    
10	984.02    492.01    492.01    
11	984.02    492.01    492.01    
12	984.02    492.01    492.01    
13	984.02    492.01    492.01    
14	984.02    492.01    492.01    
15	984.02    492.01    492.01    
16	984.02    492.01    492.01    
17	984.02    492.01    492.01    
18	984.02    492.01    492.01    
19	1139.39   569.69    569.69    
20	1139.39   569.69    569.69    
21	1139.39   569.69    569.69    
22	1139.39   569.69    569.69    
23	1139.39   569.69    569.69    
24	1139.39   569.69    569.69    
25	1139.39   569.69    569.69    
26	1139.39   569.69    569.69    
27	1139.39   569.69    569.69    
28	1139.39   569.69    569.69    
29	1139.39   569.69    569.69    
30	1139.39   569.69    569.69    
31	1139.39   569.69    569.69    
32	1139.39   569.69    569.69    
33	1139.39   569.69    569.69    
34	1139.39   569.69    569.69    
35	984.02    492.01    492.01    
36	984.02    492.01    492.01    
37	984.02    492.01    492.01    
38	984.02    492.01    492.01    
39	984.02    492.01    492.01    
40	984.02    492.01    492.01    
41	984.02    492.01    492.01    
42	984.02    492.01    492.01    
43	984.02    492.01    492.01    
44	984.02    492.01    492.01    
45	258.95    129.48    129.48    
; # water needed at front f in time slot t

param M := 100000000; 

param a1:= 10000000;

param a2:= 100;

param a3:= 0.0001;
